543 5
10 10 10 10 10 

0 0 0 0 0 0 5 2 14 26 38 50 
0 0 0 0 0 0 2 3 7 
3 0 0 0 1 0 2 12 4 
5 0 0 0 4 0 1 5 
2 0 0 0 3 0 1 6 
8 0 0 0 2 0 1 8 
4 0 0 0 1 0 1 8 
5 0 0 0 3 0 2 11 9 
10 0 0 0 5 0 1 10 
3 0 0 0 1 0 1 13 
1 0 0 0 4 0 2 13 502 
6 0 0 0 1 0 1 13 
0 0 0 0 0 0 1 62 
0 0 0 0 0 0 2 15 16 
6 0 1 0 0 0 1 17 
2 0 1 0 0 0 1 17 
8 0 3 0 0 0 1 18 
7 0 5 0 0 0 2 20 19 
8 0 2 0 0 0 1 21 
7 0 3 0 0 0 2 21 407 
1 0 4 0 0 0 2 23 22 
3 0 3 0 0 0 1 24 
10 0 2 0 0 0 1 24 
7 0 1 0 0 0 1 25 
0 0 0 0 0 0 1 62 
0 0 0 0 0 0 2 27 28 
6 0 0 0 0 1 2 31 29 
4 0 0 0 0 1 2 29 232 
5 0 0 0 0 1 1 30 
2 0 0 0 0 3 1 32 
1 0 0 0 0 4 1 32 
4 0 0 0 0 4 1 33 
9 0 0 0 0 5 2 36 34 
10 0 0 0 0 3 1 35 
10 0 0 0 0 2 1 37 
2 0 0 0 0 1 1 37 
0 0 0 0 0 0 1 62 
0 0 0 0 0 0 2 39 41 
9 0 0 0 1 0 1 40 
8 0 0 0 3 0 3 46 42 325 
5 0 0 0 2 0 2 46 42 
5 0 0 0 3 0 1 43 
6 0 0 0 2 0 1 44 
9 0 0 0 4 0 2 47 45 
1 0 0 0 1 0 1 48 
7 0 0 0 4 0 1 47 
8 0 0 0 2 0 1 49 
4 0 0 0 3 0 1 49 
0 0 0 0 0 0 1 62 
0 0 0 0 0 0 2 51 52 
5 0 0 0 0 1 1 53 
6 0 0 0 0 1 1 53 
6 0 0 0 0 2 2 55 54 
4 0 0 0 0 2 2 56 424 
3 0 0 0 0 5 1 56 
9 0 0 0 0 3 2 60 57 
7 0 0 0 0 4 1 58 
4 0 0 0 0 2 1 59 
7 0 0 0 0 3 1 61 
9 0 0 0 0 2 1 61 
0 0 0 0 0 0 1 62 
0 0 0 0 0 0 5 63 105 147 189 201 
0 0 0 0 0 0 3 64 102 103 
9 1 1 1 1 0 1 65 
8 2 2 3 2 0 1 66 
7 2 6 4 3 0 1 67 
7 3 5 2 4 0 1 68 
5 3 1 2 3 0 2 101 69 
1 2 4 2 5 0 1 70 
8 2 3 2 5 0 1 71 
3 3 2 3 2 0 2 100 72 
2 6 1 3 1 0 1 73 
7 3 3 2 1 0 1 74 
3 2 5 3 2 0 1 75 
1 1 2 2 2 0 2 99 76 
8 1 2 1 2 0 3 98 77 308 
9 3 1 2 2 0 2 97 78 
1 2 3 6 2 0 1 79 
10 2 3 2 2 0 1 80 
6 1 3 4 2 0 1 81 
1 3 1 4 4 0 1 82 
8 1 3 7 3 0 2 96 83 
7 2 4 2 2 0 3 95 94 84 
3 5 1 2 2 0 1 85 
8 1 4 3 5 0 1 86 
1 3 3 3 2 0 1 87 
1 6 1 3 2 0 1 88 
5 3 2 1 1 0 1 89 
1 3 2 3 4 0 1 90 
8 1 2 1 1 0 1 91 
5 2 1 1 5 0 1 92 
7 5 5 3 3 0 1 93 
8 3 2 1 1 0 1 104 
10 2 1 2 3 0 1 104 
2 2 1 2 1 0 1 104 
7 3 1 4 3 0 1 104 
1 5 4 3 3 0 1 104 
9 2 2 2 3 0 1 104 
9 2 2 3 1 0 1 104 
7 2 2 1 3 0 1 104 
5 3 2 1 2 0 1 104 
5 1 6 1 4 0 1 104 
1 1 1 3 1 0 1 104 
0 0 0 0 0 0 1 543 
0 0 0 0 0 0 2 106 107 
3 1 1 0 1 1 2 110 108 
1 2 4 0 2 1 1 108 
4 3 1 0 2 3 1 109 
5 2 3 0 2 1 1 111 
7 1 3 0 5 1 1 111 
5 4 4 0 1 2 1 112 
6 2 2 0 2 3 1 113 
7 2 4 0 2 3 1 114 
4 1 1 0 2 3 2 117 115 
8 3 2 0 3 2 1 116 
6 3 1 0 6 5 1 118 
5 1 2 0 3 2 1 118 
1 2 2 0 2 3 1 119 
8 4 1 0 2 2 1 120 
10 2 3 0 2 3 1 121 
6 1 5 0 4 3 1 122 
10 5 1 0 4 1 2 125 123 
9 1 3 0 2 2 2 126 124 
8 2 2 0 1 3 2 128 127 
4 3 2 0 2 2 2 128 127 
5 2 5 0 2 5 1 127 
4 2 3 0 4 3 1 129 
4 4 1 0 1 3 1 129 
5 3 1 0 2 3 1 130 
9 2 1 0 3 3 2 132 131 
10 4 1 0 2 6 1 133 
9 2 5 0 3 3 1 133 
5 4 2 0 3 1 1 134 
3 4 1 0 2 1 2 136 135 
4 2 4 0 3 3 2 139 137 
6 3 4 0 5 2 1 137 
9 4 2 0 2 2 1 138 
6 3 2 0 1 3 2 141 140 
4 2 3 0 5 2 2 141 140 
6 4 3 0 1 2 1 142 
1 3 2 0 4 2 1 142 
4 4 4 0 1 3 1 143 
5 1 3 0 1 2 1 144 
1 1 3 0 3 3 2 145 521 
7 1 3 0 2 2 1 146 
0 0 0 0 0 0 1 543 
0 0 0 0 0 0 3 148 151 153 
3 1 1 0 1 1 1 149 
1 4 3 0 6 5 1 150 
6 5 1 0 2 1 1 152 
10 2 2 0 3 3 1 152 
1 1 3 0 2 2 1 154 
7 1 2 0 1 2 1 154 
10 4 1 0 2 2 1 155 
4 2 2 0 3 1 1 156 
7 4 3 0 2 3 2 159 157 
8 2 2 0 2 3 1 158 
7 2 1 0 2 2 1 160 
7 2 3 0 6 1 1 160 
5 1 1 0 2 4 1 161 
8 2 3 0 2 1 1 162 
1 2 1 0 2 2 1 163 
1 4 5 0 4 5 2 167 164 
7 1 3 0 1 2 2 170 165 
5 2 4 0 2 2 1 166 
2 4 3 0 1 4 2 187 168 
6 3 3 0 2 2 2 174 169 
8 5 2 0 3 4 1 169 
8 1 3 0 1 4 1 171 
6 2 3 0 2 3 1 171 
6 2 3 0 3 1 1 172 
10 4 2 0 2 3 1 173 
7 3 4 0 2 4 4 183 181 175 436 
4 3 1 0 2 4 2 183 175 
7 3 2 0 2 2 1 176 
10 3 2 0 4 3 2 186 177 
10 2 3 0 2 3 1 178 
4 1 3 0 4 1 1 179 
7 3 1 0 2 1 1 180 
9 1 2 0 2 1 1 182 
8 1 4 0 3 2 1 182 
2 2 2 0 1 6 1 184 
4 4 4 0 4 1 1 184 
3 4 3 0 3 3 1 185 
8 3 2 0 6 3 1 188 
1 3 5 0 3 2 1 188 
4 1 2 0 1 1 1 188 
0 0 0 0 0 0 1 543 
0 0 0 0 0 0 1 190 
7 0 0 0 0 1 1 191 
3 0 0 0 0 1 2 192 276 
5 0 0 0 0 4 3 196 195 193 
2 0 0 0 0 2 1 194 
3 0 0 0 0 3 2 198 197 
5 0 0 0 0 2 2 198 197 
3 0 0 0 0 1 2 198 197 
9 0 0 0 0 3 1 199 
10 0 0 0 0 4 1 199 
6 0 0 0 0 4 1 200 
0 0 0 0 0 0 5 243 275 307 319 351 
0 0 0 0 0 0 4 202 209 212 448 
2 0 1 1 1 1 1 203 
6 0 3 2 6 1 1 204 
8 0 3 3 2 1 1 205 
7 0 3 4 2 3 1 206 
4 0 1 1 2 2 1 207 
9 0 2 1 2 1 2 215 208 
9 0 3 2 4 2 1 210 
5 0 3 1 3 1 1 210 
9 0 2 3 2 2 1 211 
9 0 1 2 3 2 1 213 
6 0 1 2 1 4 1 213 
1 0 4 2 2 7 1 214 
4 0 6 2 3 3 1 216 
9 0 1 1 6 2 1 216 
2 0 1 2 3 6 1 217 
7 0 2 3 4 2 2 225 218 
5 0 5 5 2 1 2 229 219 
10 0 3 2 3 4 2 240 220 
4 0 2 3 3 1 1 221 
3 0 2 6 2 2 1 222 
2 0 4 2 1 2 1 223 
8 0 2 3 2 4 2 238 224 
4 0 1 3 4 2 2 239 226 
9 0 3 3 2 3 4 241 238 237 228 
4 0 2 1 1 1 2 237 227 
9 0 2 2 3 3 1 228 
7 0 2 2 2 3 1 230 
2 0 3 4 3 3 1 230 
1 0 3 3 3 4 1 231 
5 0 2 2 3 5 1 232 
1 0 2 3 1 1 1 233 
6 0 6 2 1 3 1 234 
1 0 1 2 2 4 1 235 
9 0 4 2 1 1 1 236 
8 0 4 3 2 3 1 242 
6 0 2 2 2 2 1 242 
8 0 3 3 3 3 1 242 
6 0 1 3 2 2 1 242 
1 0 1 4 3 2 1 242 
6 0 3 3 3 1 1 242 
0 0 0 0 0 0 1 543 
0 0 0 0 0 0 1 244 
7 1 0 1 1 0 2 247 245 
6 3 0 4 4 0 1 246 
3 3 0 3 1 0 2 249 248 
8 3 0 1 3 0 1 248 
8 4 0 1 2 0 1 250 
8 2 0 2 3 0 1 250 
3 4 0 3 3 0 2 254 251 
3 1 0 2 1 0 1 252 
5 2 0 1 2 0 2 256 253 
1 1 0 3 2 0 2 260 255 
7 1 0 3 4 0 2 256 255 
2 2 0 1 2 0 1 257 
5 2 0 3 1 0 1 257 
4 3 0 3 3 0 2 262 258 
8 4 0 4 1 0 1 259 
5 2 0 2 4 0 2 265 261 
8 4 0 3 2 0 3 268 265 264 
5 4 0 1 2 0 2 268 263 
6 1 0 1 1 0 2 268 264 
7 2 0 2 5 0 1 264 
2 4 0 1 1 0 1 266 
8 1 0 3 4 0 2 266 386 
8 3 0 5 4 0 1 267 
10 2 0 2 3 0 1 269 
6 4 0 3 1 0 1 269 
2 2 0 3 4 0 1 270 
6 3 0 3 3 0 1 271 
3 4 0 4 4 0 1 272 
7 2 0 4 3 0 1 273 
1 1 0 3 1 0 1 274 
0 0 0 0 0 0 1 543 
0 0 0 0 0 0 2 276 305 
7 1 1 0 1 0 1 277 
9 3 2 0 2 0 1 278 
5 2 4 0 5 0 1 279 
6 2 5 0 2 0 1 280 
9 3 3 0 3 0 2 304 281 
4 2 2 0 5 0 1 282 
6 2 2 0 1 0 2 303 283 
4 3 2 0 3 0 4 302 301 293 284 
6 1 2 0 5 0 1 285 
10 1 3 0 2 0 2 292 286 
1 3 2 0 2 0 1 287 
10 3 1 0 3 0 1 288 
4 1 3 0 1 0 2 300 289 
5 3 2 0 3 0 1 290 
8 3 1 0 3 0 1 291 
6 4 4 0 3 0 1 294 
2 4 2 0 1 0 1 294 
6 3 4 0 1 0 1 294 
7 3 2 0 5 0 1 295 
6 1 3 0 1 0 2 296 471 
4 1 2 0 1 0 1 297 
7 1 5 0 3 0 1 298 
3 3 2 0 3 0 1 299 
6 5 1 0 3 0 1 306 
5 2 2 0 3 0 1 306 
5 3 3 0 2 0 1 306 
1 5 5 0 1 0 1 306 
2 1 2 0 4 0 1 306 
6 2 1 0 2 0 1 306 
3 4 2 0 1 0 1 306 
0 0 0 0 0 0 1 543 
0 0 0 0 0 0 2 308 310 
2 0 0 0 1 0 1 309 
7 0 0 0 4 0 3 317 316 311 
9 0 0 0 2 0 2 316 313 
4 0 0 0 5 0 1 312 
2 0 0 0 2 0 1 313 
5 0 0 0 1 0 1 314 
3 0 0 0 3 0 1 315 
4 0 0 0 2 0 1 318 
10 0 0 0 2 0 2 318 447 
8 0 0 0 3 0 1 318 
0 0 0 0 0 0 5 383 395 417 439 461 
0 0 0 0 0 0 2 320 340 
4 1 0 1 0 1 1 321 
5 2 0 2 0 3 1 322 
6 4 0 4 0 1 1 323 
8 2 0 2 0 2 1 324 
8 2 0 3 0 3 2 333 325 
2 1 0 4 0 3 1 326 
2 3 0 2 0 2 1 327 
2 2 0 1 0 2 3 336 330 328 
6 6 0 4 0 3 2 332 329 
8 2 0 2 0 5 3 338 335 331 
4 2 0 5 0 5 2 338 334 
5 3 0 2 0 1 1 334 
4 4 0 5 0 1 1 334 
1 3 0 3 0 2 1 334 
6 3 0 1 0 3 1 337 
6 3 0 3 0 3 1 337 
2 3 0 2 0 3 1 338 
4 1 0 2 0 4 1 339 
9 4 0 1 0 4 2 339 511 
8 1 0 5 0 1 1 341 
2 2 0 1 0 1 1 341 
5 3 0 2 0 2 2 348 342 
5 2 0 3 0 2 1 343 
8 3 0 3 0 2 1 344 
9 1 0 2 0 2 1 345 
7 2 0 2 0 4 1 346 
7 2 0 1 0 2 1 347 
4 2 0 2 0 4 1 349 
6 3 0 3 0 2 1 349 
10 3 0 2 0 2 1 350 
0 0 0 0 0 0 1 543 
0 0 0 0 0 0 2 352 381 
6 0 1 1 0 1 1 353 
8 0 1 3 0 5 1 354 
6 0 1 8 0 3 1 355 
1 0 2 3 0 5 1 356 
9 0 5 1 0 3 2 380 357 
9 0 2 2 0 3 1 358 
7 0 2 2 0 1 1 359 
10 0 3 2 0 1 5 379 376 369 365 360 
4 0 3 2 0 3 1 361 
1 0 1 4 0 2 2 367 362 
7 0 1 2 0 8 1 363 
3 0 3 3 0 3 2 364 540 
7 0 3 1 0 2 1 366 
4 0 2 2 0 3 1 367 
8 0 3 2 0 3 1 368 
4 0 4 2 0 2 1 368 
1 0 2 3 0 1 2 378 370 
7 0 1 3 0 2 2 378 371 
7 0 2 3 0 1 1 371 
5 0 1 4 0 2 1 372 
10 0 3 3 0 2 1 373 
10 0 6 3 0 1 1 374 
2 0 3 2 0 3 1 375 
6 0 4 2 0 1 1 377 
4 0 3 3 0 4 1 377 
10 0 2 2 0 3 1 382 
4 0 3 1 0 3 1 382 
3 0 2 2 0 1 1 382 
4 0 2 2 0 2 1 382 
10 0 4 2 0 1 1 382 
0 0 0 0 0 0 1 543 
0 0 0 0 0 0 4 384 390 393 536 
5 0 0 0 0 1 1 385 
2 0 0 0 0 4 1 386 
6 0 0 0 0 2 2 392 387 
10 0 0 0 0 3 1 388 
4 0 0 0 0 3 1 389 
2 0 0 0 0 2 1 391 
6 0 0 0 0 3 1 391 
7 0 0 0 0 2 1 394 
6 0 0 0 0 2 1 394 
8 0 0 0 0 3 1 394 
0 0 0 0 0 0 5 483 495 507 519 531 
0 0 0 0 0 0 2 396 398 
2 0 0 0 1 1 2 401 397 
2 0 0 0 2 4 1 399 
2 0 0 0 5 2 1 399 
4 0 0 0 4 4 1 400 
4 0 0 0 2 2 1 402 
1 0 0 0 1 3 1 402 
7 0 0 0 3 2 2 408 403 
2 0 0 0 3 2 2 413 404 
3 0 0 0 1 1 1 405 
9 0 0 0 2 4 1 406 
3 0 0 0 3 4 2 415 407 
3 0 0 0 3 3 1 409 
8 0 0 0 2 1 2 409 474 
9 0 0 0 2 2 1 410 
5 0 0 0 2 3 1 411 
2 0 0 0 2 4 1 412 
4 0 0 0 2 3 1 414 
10 0 0 0 4 2 1 414 
3 0 0 0 4 1 1 416 
4 0 0 0 2 2 1 416 
0 0 0 0 0 0 1 543 
0 0 0 0 0 0 1 418 
9 0 0 0 1 1 2 421 419 
5 0 0 0 4 2 2 424 420 
3 0 0 0 3 4 1 422 
10 0 0 0 3 3 1 422 
8 0 0 0 1 2 1 423 
8 0 0 0 2 1 1 425 
7 0 0 0 1 1 1 425 
3 0 0 0 1 3 3 431 428 426 
9 0 0 0 2 3 1 427 
6 0 0 0 1 3 1 429 
3 0 0 0 3 2 1 429 
2 0 0 0 2 2 2 434 430 
9 0 0 0 2 7 1 432 
6 0 0 0 2 2 1 432 
9 0 0 0 5 1 1 433 
9 0 0 0 6 2 2 435 468 
4 0 0 0 2 2 1 435 
3 0 0 0 5 2 1 436 
7 0 0 0 1 2 1 437 
9 0 0 0 3 5 1 438 
0 0 0 0 0 0 1 543 
0 0 0 0 0 0 2 440 510 
9 0 0 0 1 1 2 444 441 
6 0 0 0 5 2 2 447 442 
4 0 0 0 1 1 1 443 
6 0 0 0 1 1 1 445 
5 0 0 0 1 1 1 445 
6 0 0 0 1 2 2 450 446 
7 0 0 0 5 4 2 454 448 
7 0 0 0 2 1 2 454 448 
4 0 0 0 1 2 1 449 
2 0 0 0 4 4 1 451 
8 0 0 0 4 5 1 451 
8 0 0 0 2 5 2 459 452 
4 0 0 0 1 2 1 453 
8 0 0 0 7 2 1 455 
8 0 0 0 2 2 1 455 
7 0 0 0 3 4 1 456 
9 0 0 0 1 2 1 457 
2 0 0 0 2 2 1 458 
2 0 0 0 3 2 1 460 
6 0 0 0 3 5 1 460 
0 0 0 0 0 0 1 543 
0 0 0 0 0 0 1 462 
6 1 1 0 0 0 1 463 
8 1 1 0 0 0 2 466 464 
4 4 1 0 0 0 1 465 
8 1 1 0 0 0 2 468 467 
4 2 4 0 0 0 1 467 
5 4 3 0 0 0 2 473 469 
7 3 5 0 0 0 3 473 472 471 
3 3 3 0 0 0 2 472 470 
1 3 2 0 0 0 1 471 
4 2 2 0 0 0 2 475 474 
1 2 1 0 0 0 2 474 523 
8 3 5 0 0 0 1 474 
8 3 2 0 0 0 1 476 
2 3 3 0 0 0 1 476 
9 2 5 0 0 0 1 477 
3 1 1 0 0 0 1 478 
2 4 3 0 0 0 1 479 
2 2 4 0 0 0 1 480 
10 3 1 0 0 0 1 481 
1 3 2 0 0 0 1 482 
0 0 0 0 0 0 1 543 
0 0 0 0 0 0 2 484 485 
2 0 0 0 0 1 3 492 486 511 
10 0 0 0 0 2 1 486 
6 0 0 0 0 3 2 490 487 
5 0 0 0 0 3 1 488 
4 0 0 0 0 4 1 489 
10 0 0 0 0 3 1 491 
6 0 0 0 0 2 1 491 
10 0 0 0 0 1 1 493 
1 0 0 0 0 5 1 493 
9 0 0 0 0 1 1 494 
0 0 0 0 0 0 1 543 
0 0 0 0 0 0 2 496 497 
2 0 0 1 0 0 2 499 498 
5 0 0 6 0 0 2 499 498 
10 0 0 1 0 0 2 503 500 
10 0 0 1 0 0 2 503 500 
7 0 0 2 0 0 1 501 
1 0 0 2 0 0 1 502 
3 0 0 2 0 0 2 504 527 
2 0 0 5 0 0 1 504 
9 0 0 1 0 0 1 505 
9 0 0 4 0 0 1 506 
0 0 0 0 0 0 1 543 
0 0 0 0 0 0 3 508 512 516 
3 0 0 0 0 1 2 515 509 
9 0 0 0 0 3 1 510 
5 0 0 0 0 3 2 511 532 
6 0 0 0 0 3 1 513 
10 0 0 0 0 4 1 513 
2 0 0 0 0 2 1 514 
3 0 0 0 0 2 1 517 
5 0 0 0 0 2 1 517 
1 0 0 0 0 2 1 517 
9 0 0 0 0 3 1 518 
0 0 0 0 0 0 1 543 
0 0 0 0 0 0 1 520 
1 0 1 0 0 0 1 521 
5 0 3 0 0 0 2 524 522 
8 0 1 0 0 0 1 523 
5 0 2 0 0 0 3 526 525 541 
3 0 1 0 0 0 1 525 
10 0 3 0 0 0 2 528 527 
5 0 4 0 0 0 2 528 527 
8 0 4 0 0 0 1 529 
2 0 3 0 0 0 1 529 
6 0 3 0 0 0 1 530 
0 0 0 0 0 0 1 543 
0 0 0 0 0 0 2 532 533 
2 1 0 0 0 0 1 534 
3 1 0 0 0 0 1 534 
1 4 0 0 0 0 2 536 535 
5 2 0 0 0 0 1 537 
6 3 0 0 0 0 1 537 
6 1 0 0 0 0 2 540 538 
5 2 0 0 0 0 1 539 
9 4 0 0 0 0 1 541 
1 4 0 0 0 0 1 541 
10 3 0 0 0 0 1 542 
0 0 0 0 0 0 1 543 
0 0 0 0 0 0 0 
